Route #1: 28 29 60 13 32 48
Route #2: 42 14 12 54 41 35 6 62 5
Route #3: 18 50 1 45
Route #4: 44 16 9 47 15
Route #5: 34 25 33 26 21 52
Route #6: 57 24 43 51 19 39
Route #7: 27 36 20 7 61 22
Route #8: 37 10 38 53 23 11 17 58 2
Route #9: 55 31 59 8 46 30
Route #10: 49 56 4 3 40
cost 1731.206787109375